RT is False
Default write of storage_offers_DA.csv just to have a file (but constraint should be inactive)
Reading model...
...model read.
creating competitive generators file...
...competitive generators recorded.
Loading data...
.. day-ahead data with real-time VRE data read.
Compiling instance...
...instance created.
Creating Offer Mitigation (model will solve as dispatch if TRUE)...
...storage offer mitigation file created
Converting model to MPEC...
...converted
NOTE: initial MIP solve with only storage competitive to get feasible solution
Solving...

Welcome to IBM(R) ILOG(R) CPLEX(R) Interactive Optimizer 12.9.0.0
  with Simplex, Mixed Integer & Barrier Optimizers
5725-A06 5725-A29 5724-Y48 5724-Y49 5724-Y54 5724-Y55 5655-Y21
Copyright IBM Corp. 1988, 2019.  All Rights Reserved.

Type 'help' for a list of available commands.
Type 'help' followed by a command name for more
information on commands.

CPLEX> Logfile 'cplex.log' closed.
Logfile 'C:\Users\llavin\Desktop\test826\logs\tmpz3hrey_v.cplex.log' open.
CPLEX> New value for parallel optimization mode: -1
CPLEX> New value for emphasis for MIP optimization: 1
CPLEX> New value for mixed integer optimality gap tolerance: 0.01
CPLEX> New value for integrality tolerance: 1e-12
CPLEX> New value for feasibility tolerance: 0.01
CPLEX> New value for deterministic time limit in ticks: 75000
CPLEX> Problem 'C:\Users\llavin\Desktop\test826\logs\tmpp1n0vxpl.pyomo.lp' read.
Read time = 0.23 sec. (14.73 ticks)
CPLEX> Problem name         : C:\Users\llavin\Desktop\test826\logs\tmpp1n0vxpl.pyomo.lp
Objective sense      : Maximize
Variables            :   53805  [Nneg: 1,  Box: 22000,  Free: 4464,
                                 Binary: 27340]
Objective nonzeros   :    9078
Linear constraints   :  123205  [Less: 41346,  Greater: 59096,  Equal: 22763]
  Nonzeros           :  291705
  RHS nonzeros       :   67491

Variables            : Min LB: -5000.000        Max UB: 1000000.       
Objective nonzeros   : Min   : 1.000000e-06     Max   : 731.8583       
Linear constraints   :
  Nonzeros           : Min   : 1.000000e-06     Max   : 1000000.       
  RHS nonzeros       : Min   : 1.000000e-06     Max   : 1000000.       
CPLEX> CPXPARAM_Parallel                                -1
CPXPARAM_Emphasis_MIP                            1
CPXPARAM_Simplex_Tolerances_Feasibility          0.01
CPXPARAM_DetTimeLimit                            75000
CPXPARAM_MIP_Tolerances_MIPGap                   0.01
CPXPARAM_MIP_Tolerances_Integrality              9.9999999999999998e-13
Tried aggregator 3 times.
MIP Presolve eliminated 88714 rows and 19062 columns.
MIP Presolve added 3354 rows and 0 columns.
MIP Presolve modified 25107 coefficients.
Aggregator did 12951 substitutions.
Reduced MIP has 24894 rows, 21236 columns, and 70970 nonzeros.
Reduced MIP has 8403 binaries, 0 generals, 0 SOSs, and 0 indicators.
Presolve time = 0.30 sec. (175.31 ticks)
Probing fixed 463 vars, tightened 3641 bounds.
Probing time = 1.45 sec. (960.80 ticks)
Tried aggregator 2 times.
MIP Presolve eliminated 1030 rows and 929 columns.
MIP Presolve modified 2380 coefficients.
Aggregator did 60 substitutions.
Reduced MIP has 23804 rows, 20247 columns, and 67802 nonzeros.
Reduced MIP has 7939 binaries, 0 generals, 0 SOSs, and 0 indicators.
Presolve time = 0.11 sec. (68.40 ticks)
Probing fixed 0 vars, tightened 78 bounds.
Probing time = 0.22 sec. (136.61 ticks)
Clique table members: 10025.
MIP emphasis: integer feasibility.
MIP search method: dynamic search.
Parallel mode: opportunistic, using up to 32 threads.
Root relaxation solution time = 0.34 sec. (259.71 ticks)

        Nodes                                         Cuts/
   Node  Left     Objective  IInf  Best Integer    Best Bound    ItCnt     Gap

      0     0      -23.2135  1719                    -23.2135     6360         
      0     0      -23.4052    20                    Cuts: 14     6367         
      0     0      -23.4052    19                     Cuts: 7     6371         
      0    21    infeasible                          -78.2345     6660         
Elapsed time = 5.31 sec. (3127.34 ticks, tree = 0.02 MB, solutions = 0)
*   110+   61                         -302.9954      -78.2345            74.18%
*   523    61      integral     0      -78.2345      -78.2345    12576    0.00%
    525    61      -78.2345     0      -78.2345      -78.2345    12576    0.00%

Implied bound cuts applied:  7
Flow cuts applied:  3
Mixed integer rounding cuts applied:  1
Gomory fractional cuts applied:  5

Root node processing (before b&c):
  Real time             =    4.50 sec. (3120.49 ticks)
Parallel b&c, 32 threads:
  Real time             =    2.86 sec. (533.36 ticks)
  Sync time (average)   =    0.57 sec.
  Wait time (average)   =    0.00 sec.
                          ------------
Total (root+branch&cut) =    7.36 sec. (3653.84 ticks)

Solution pool: 4 solutions saved.

MIP - Integer optimal solution:  Objective = -7.8234508619e+01
Solution time =    7.39 sec.  Iterations = 19116  Nodes = 531
Deterministic time = 3654.00 ticks  (494.38 ticks/sec)

CPLEX> Incumbent solution written to file 'C:\Users\llavin\Desktop\test826\logs\tmpc65z3g5d.cplex.sol'.
CPLEX> NOTE: no warmstart specified for MIP iteration, default behavior is true
NOTE: resolving with all competitive generators using storage-only solution to warmstart
Solving...

Welcome to IBM(R) ILOG(R) CPLEX(R) Interactive Optimizer 12.9.0.0
  with Simplex, Mixed Integer & Barrier Optimizers
5725-A06 5725-A29 5724-Y48 5724-Y49 5724-Y54 5724-Y55 5655-Y21
Copyright IBM Corp. 1988, 2019.  All Rights Reserved.

Type 'help' for a list of available commands.
Type 'help' followed by a command name for more
information on commands.

CPLEX> Logfile 'cplex.log' closed.
Logfile 'C:\Users\llavin\Desktop\test826\logs\tmp9vgkz2lb.cplex.log' open.
CPLEX> New value for parallel optimization mode: -1
CPLEX> New value for emphasis for MIP optimization: 1
CPLEX> New value for mixed integer optimality gap tolerance: 0.01
CPLEX> New value for integrality tolerance: 1e-12
CPLEX> New value for feasibility tolerance: 0.01
CPLEX> New value for deterministic time limit in ticks: 75000
CPLEX> Problem 'C:\Users\llavin\Desktop\test826\logs\tmp5ifvir3p.pyomo.lp' read.
Read time = 0.23 sec. (14.75 ticks)
CPLEX> MIP start file 'C:\Users\llavin\Desktop\test826\logs\tmpyy4fp1df.cplex.mst' read.
CPLEX> Problem name         : C:\Users\llavin\Desktop\test826\logs\tmp5ifvir3p.pyomo.lp
Objective sense      : Maximize
Variables            :   54525  [Nneg: 1,  Box: 22720,  Free: 4464,
                                 Binary: 27340]
Objective nonzeros   :    9798
Linear constraints   :  123205  [Less: 41346,  Greater: 59096,  Equal: 22763]
  Nonzeros           :  291705
  RHS nonzeros       :   67491

Variables            : Min LB: -5000.000        Max UB: 1000000.       
Objective nonzeros   : Min   : 1.000000e-06     Max   : 731.8583       
Linear constraints   :
  Nonzeros           : Min   : 1.000000e-06     Max   : 1000000.       
  RHS nonzeros       : Min   : 1.000000e-06     Max   : 1000000.       
CPLEX> CPXPARAM_Parallel                                -1
CPXPARAM_Emphasis_MIP                            1
CPXPARAM_Simplex_Tolerances_Feasibility          0.01
CPXPARAM_DetTimeLimit                            75000
CPXPARAM_MIP_Tolerances_MIPGap                   0.01
CPXPARAM_MIP_Tolerances_Integrality              9.9999999999999998e-13
Warning:  No solution found from 1 MIP starts.
Retaining values of one MIP start for possible repair.
Tried aggregator 3 times.
MIP Presolve eliminated 88714 rows and 19782 columns.
MIP Presolve added 3354 rows and 0 columns.
MIP Presolve modified 25107 coefficients.
Aggregator did 12951 substitutions.
Reduced MIP has 24894 rows, 21236 columns, and 70970 nonzeros.
Reduced MIP has 8403 binaries, 0 generals, 0 SOSs, and 0 indicators.
Presolve time = 0.28 sec. (175.66 ticks)
Probing fixed 463 vars, tightened 3641 bounds.
Probing time = 1.34 sec. (960.80 ticks)
Tried aggregator 2 times.
MIP Presolve eliminated 1030 rows and 929 columns.
MIP Presolve modified 2380 coefficients.
Aggregator did 60 substitutions.
Reduced MIP has 23804 rows, 20247 columns, and 67802 nonzeros.
Reduced MIP has 7939 binaries, 0 generals, 0 SOSs, and 0 indicators.
Presolve time = 0.11 sec. (68.40 ticks)
Probing fixed 0 vars, tightened 78 bounds.
Probing time = 0.22 sec. (136.61 ticks)
Clique table members: 10025.
MIP emphasis: integer feasibility.
MIP search method: dynamic search.
Parallel mode: opportunistic, using up to 32 threads.
Root relaxation solution time = 0.33 sec. (259.71 ticks)

        Nodes                                         Cuts/
   Node  Left     Objective  IInf  Best Integer    Best Bound    ItCnt     Gap

      0     0      -23.2135  1719                    -23.2135     6360         
      0     0      -23.4052    20                    Cuts: 14     6367         
      0     0      -23.4052    19                     Cuts: 7     6371         
Repair heuristic found nothing.
      0     8    infeasible                       Impl Bds: 1     6442         
Elapsed time = 5.77 sec. (3219.92 ticks, tree = 0.02 MB, solutions = 0)
*    94+   47                          -94.0679      -78.2345            16.83%
    668    88      -80.0304     2      -94.0679      -78.2345    11117   16.83%
   1054   231        cutoff            -94.0679      -78.2345    12002   16.83%
   1293   256        cutoff            -94.0679      -78.2345    12104   16.83%
   1505   279      -80.0304     1      -94.0679      -78.2345    12246   16.83%
*  1590   287      integral     0      -78.2345      -78.2345    12515    0.00%
   1685   298      -78.2345     2      -78.2345      -78.2345    12531    0.00%
   1777   296      -80.6290     1      -78.2345      -78.2345    12535    0.00%

Implied bound cuts applied:  6
Flow cuts applied:  3
Mixed integer rounding cuts applied:  1
Gomory fractional cuts applied:  5

Root node processing (before b&c):
  Real time             =    4.78 sec. (3207.75 ticks)
Parallel b&c, 32 threads:
  Real time             =    8.08 sec. (1521.07 ticks)
  Sync time (average)   =    0.68 sec.
  Wait time (average)   =    0.00 sec.
                          ------------
Total (root+branch&cut) =   12.86 sec. (4728.82 ticks)

Solution pool: 3 solutions saved.

MIP - Integer optimal solution:  Objective = -7.8234508619e+01
Solution time =   12.88 sec.  Iterations = 12781  Nodes = 1779
Deterministic time = 4728.98 ticks  (367.30 ticks/sec)

CPLEX> Incumbent solution written to file 'C:\Users\llavin\Desktop\test826\logs\tmpwki55w72.cplex.sol'.
CPLEX> Exporting results... 
